c *********************************
c * Circuit generated by BenCGen
c *
c * Parity_78
c *
c * Ports with 1 gate(s): 1
c * Ports with 2 gate(s): 78
c * Total gates: 79
c *********************************
p cnf 157 313
1 81 0
-1 -81 0
1 -80 0
81 -80 0
-1 -81 80 0
1 2 -82 0
-1 2 82 0
1 -2 82 0
-1 -2 -82 0
3 4 -83 0
-3 4 83 0
3 -4 83 0
-3 -4 -83 0
5 6 -84 0
-5 6 84 0
5 -6 84 0
-5 -6 -84 0
7 8 -85 0
-7 8 85 0
7 -8 85 0
-7 -8 -85 0
9 10 -86 0
-9 10 86 0
9 -10 86 0
-9 -10 -86 0
11 12 -87 0
-11 12 87 0
11 -12 87 0
-11 -12 -87 0
13 14 -88 0
-13 14 88 0
13 -14 88 0
-13 -14 -88 0
15 16 -89 0
-15 16 89 0
15 -16 89 0
-15 -16 -89 0
17 18 -90 0
-17 18 90 0
17 -18 90 0
-17 -18 -90 0
19 20 -91 0
-19 20 91 0
19 -20 91 0
-19 -20 -91 0
21 22 -92 0
-21 22 92 0
21 -22 92 0
-21 -22 -92 0
23 24 -93 0
-23 24 93 0
23 -24 93 0
-23 -24 -93 0
25 26 -94 0
-25 26 94 0
25 -26 94 0
-25 -26 -94 0
27 28 -95 0
-27 28 95 0
27 -28 95 0
-27 -28 -95 0
29 30 -96 0
-29 30 96 0
29 -30 96 0
-29 -30 -96 0
31 32 -97 0
-31 32 97 0
31 -32 97 0
-31 -32 -97 0
33 34 -98 0
-33 34 98 0
33 -34 98 0
-33 -34 -98 0
35 36 -99 0
-35 36 99 0
35 -36 99 0
-35 -36 -99 0
37 38 -100 0
-37 38 100 0
37 -38 100 0
-37 -38 -100 0
39 40 -101 0
-39 40 101 0
39 -40 101 0
-39 -40 -101 0
41 42 -102 0
-41 42 102 0
41 -42 102 0
-41 -42 -102 0
43 44 -103 0
-43 44 103 0
43 -44 103 0
-43 -44 -103 0
45 46 -104 0
-45 46 104 0
45 -46 104 0
-45 -46 -104 0
47 48 -105 0
-47 48 105 0
47 -48 105 0
-47 -48 -105 0
49 50 -106 0
-49 50 106 0
49 -50 106 0
-49 -50 -106 0
51 52 -107 0
-51 52 107 0
51 -52 107 0
-51 -52 -107 0
53 54 -108 0
-53 54 108 0
53 -54 108 0
-53 -54 -108 0
55 56 -109 0
-55 56 109 0
55 -56 109 0
-55 -56 -109 0
57 58 -110 0
-57 58 110 0
57 -58 110 0
-57 -58 -110 0
59 60 -111 0
-59 60 111 0
59 -60 111 0
-59 -60 -111 0
61 62 -112 0
-61 62 112 0
61 -62 112 0
-61 -62 -112 0
63 64 -113 0
-63 64 113 0
63 -64 113 0
-63 -64 -113 0
65 66 -114 0
-65 66 114 0
65 -66 114 0
-65 -66 -114 0
67 68 -115 0
-67 68 115 0
67 -68 115 0
-67 -68 -115 0
69 70 -116 0
-69 70 116 0
69 -70 116 0
-69 -70 -116 0
71 72 -117 0
-71 72 117 0
71 -72 117 0
-71 -72 -117 0
73 74 -118 0
-73 74 118 0
73 -74 118 0
-73 -74 -118 0
75 76 -119 0
-75 76 119 0
75 -76 119 0
-75 -76 -119 0
77 78 -120 0
-77 78 120 0
77 -78 120 0
-77 -78 -120 0
82 83 -121 0
-82 83 121 0
82 -83 121 0
-82 -83 -121 0
84 85 -122 0
-84 85 122 0
84 -85 122 0
-84 -85 -122 0
86 87 -123 0
-86 87 123 0
86 -87 123 0
-86 -87 -123 0
88 89 -124 0
-88 89 124 0
88 -89 124 0
-88 -89 -124 0
90 91 -125 0
-90 91 125 0
90 -91 125 0
-90 -91 -125 0
92 93 -126 0
-92 93 126 0
92 -93 126 0
-92 -93 -126 0
94 95 -127 0
-94 95 127 0
94 -95 127 0
-94 -95 -127 0
96 97 -128 0
-96 97 128 0
96 -97 128 0
-96 -97 -128 0
98 99 -129 0
-98 99 129 0
98 -99 129 0
-98 -99 -129 0
100 101 -130 0
-100 101 130 0
100 -101 130 0
-100 -101 -130 0
102 103 -131 0
-102 103 131 0
102 -103 131 0
-102 -103 -131 0
104 105 -132 0
-104 105 132 0
104 -105 132 0
-104 -105 -132 0
106 107 -133 0
-106 107 133 0
106 -107 133 0
-106 -107 -133 0
108 109 -134 0
-108 109 134 0
108 -109 134 0
-108 -109 -134 0
110 111 -135 0
-110 111 135 0
110 -111 135 0
-110 -111 -135 0
112 113 -136 0
-112 113 136 0
112 -113 136 0
-112 -113 -136 0
114 115 -137 0
-114 115 137 0
114 -115 137 0
-114 -115 -137 0
116 117 -138 0
-116 117 138 0
116 -117 138 0
-116 -117 -138 0
118 119 -139 0
-118 119 139 0
118 -119 139 0
-118 -119 -139 0
121 122 -140 0
-121 122 140 0
121 -122 140 0
-121 -122 -140 0
123 124 -141 0
-123 124 141 0
123 -124 141 0
-123 -124 -141 0
125 126 -142 0
-125 126 142 0
125 -126 142 0
-125 -126 -142 0
127 128 -143 0
-127 128 143 0
127 -128 143 0
-127 -128 -143 0
129 130 -144 0
-129 130 144 0
129 -130 144 0
-129 -130 -144 0
131 132 -145 0
-131 132 145 0
131 -132 145 0
-131 -132 -145 0
133 134 -146 0
-133 134 146 0
133 -134 146 0
-133 -134 -146 0
135 136 -147 0
-135 136 147 0
135 -136 147 0
-135 -136 -147 0
137 138 -148 0
-137 138 148 0
137 -138 148 0
-137 -138 -148 0
139 120 -149 0
-139 120 149 0
139 -120 149 0
-139 -120 -149 0
140 141 -150 0
-140 141 150 0
140 -141 150 0
-140 -141 -150 0
142 143 -151 0
-142 143 151 0
142 -143 151 0
-142 -143 -151 0
144 145 -152 0
-144 145 152 0
144 -145 152 0
-144 -145 -152 0
146 147 -153 0
-146 147 153 0
146 -147 153 0
-146 -147 -153 0
148 149 -154 0
-148 149 154 0
148 -149 154 0
-148 -149 -154 0
150 151 -155 0
-150 151 155 0
150 -151 155 0
-150 -151 -155 0
152 153 -156 0
-152 153 156 0
152 -153 156 0
-152 -153 -156 0
155 156 -157 0
-155 156 157 0
155 -156 157 0
-155 -156 -157 0
157 154 -79 0
-157 154 79 0
157 -154 79 0
-157 -154 -79 0
